% Generado automáticamente desde MinPol1.mpl.
% No editar manualmente: use el conversor MPL.

n = 5;
m = 5;
p = [1, 1, 1, 1, 1];

escala_v = 1000;
v = [109, 391, 481, 789, 976];

escala_costo = 1000;
ce = [5556, 12897, 18251, 2757, 3138];
ct = 16380;
maxM = 5;

c = array2d(1..5, 1..5, [
    0, 2427, 3309, 2866, 1598,
    575, 0, 932, 2230, 4082,
    2177, 3632, 0, 2745, 728,
    3222, 569, 1791, 0, 4467,
    2561, 2530, 399, 3137, 0
]);
